3	25
380	691	597	483	129	828	317	84	315	444	723	278	222	837	710	74	453	807	322	93	761	94	395	303	772	
267	166	595	735	760	686	800	896	522	107	698	148	150	406	118	921	693	789	503	321	501	591	529	974	338	
3304	3304	3304	
